
se = 80; % nombre de sessions
gr = 40; % nombre de grups de treball
cl = 12; % nombre de slots
minPapersPerSlot = 3; % minim nombre d'articles per sessio i slot
maxSesionsPar = 20; % maxim nombre de sessions paraleles

npMax = [6, 4, 6, 6, 5, 5, 3, 5, 4, 4, 6, 4]; % nombre maxim de papers per slot

np = [6, 11, 11, 11, 17, 13, 3, 3, 12, 6, 8, 4, 10, 6, 11, 9, 8, 10, 16, 8, 4, 16, 10, 16, 7, 17, 3, 14, 3, 8, 13, 16, 16, 10, 14, 10, 13, 5, 19, 12, 14, 11, 7, 11, 6, 3, 4, 16, 7, 8, 10, 13, 3, 10, 11, 16, 10, 18, 5, 10, 6, 7, 13, 18, 12, 14, 9, 16, 6, 7, 3, 13, 14, 13, 7, 8, 15, 4, 9, 16]; % nombre de papers acceptats a cada sessio

WG = [ {1}, {2}, {3}, {4}, {5}, {6,7,8}, {}, {}, {9}, {10}, {11}, {}, {12,13}, {14,15}, {16}, {17,18,19}, {20}, {21}, {22}, {23}, {24}, {25}, {}, {}, {}, {26}, {}, {27}, {28}, {29}, {}, {}, {30}, {31,32,33}, {34}, {35}, {36}, {}, {}, {37,38,39}, {}, {40,1,2}, {3}, {4}, {}, {5}, {6,7,8}, {9,10,11}, {12}, {13}, {14}, {15,16,17}, {18}, {19,20,21}, {22}, {23}, {24,25}, {}, {26}, {27}, {}, {28}, {29}, {}, {30}, {31,32}, {}, {33}, {}, {34}, {35,36}, {37}, {38}, {39}, {}, {40}, {}, {1}, {}, {2} ]; % grups per sessio

